p cnf 430 1488
-191 -30 0
-191 119 0
-191 10 0
-191 94 0
-191 -184 0
191 30 -119 -10 -94 184 0
-192 -97 0
-192 57 0
-192 -16 0
-192 -142 0
-192 120 0
192 97 -57 16 142 -120 0
-193 42 0
-193 -177 0
-193 162 0
-193 113 0
-193 34 0
193 -42 177 -162 -113 -34 0
-194 167 0
-194 -187 0
-194 131 0
-194 -94 0
-194 -156 0
194 -167 187 -131 94 156 0
-195 23 0
-195 -151 0
-195 95 0
-195 135 0
-195 -66 0
195 -23 151 -95 -135 66 0
191 192 193 194 195 0
-196 -49 0
-196 59 0
-196 89 0
-196 -21 0
-196 183 0
196 49 -59 -89 21 -183 0
-197 -137 0
-197 147 0
-197 170 0
-197 110 0
-197 -51 0
197 137 -147 -170 -110 51 0
-198 139 0
-198 111 0
-198 -190 0
-198 127 0
-198 -137 0
198 -139 -111 190 -127 137 0
-199 93 0
-199 -29 0
-199 -20 0
-199 139 0
-199 -152 0
199 -93 29 20 -139 152 0
-200 -122 0
-200 69 0
-200 -167 0
-200 -44 0
-200 133 0
200 122 -69 167 44 -133 0
196 197 198 199 200 0
-201 36 0
-201 6 0
-201 -88 0
-201 66 0
-201 8 0
201 -36 -6 88 -66 -8 0
-202 77 0
-202 -14 0
-202 120 0
-202 28 0
-202 70 0
202 -77 14 -120 -28 -70 0
-203 39 0
-203 49 0
-203 -164 0
-203 187 0
-203 180 0
203 -39 -49 164 -187 -180 0
-204 -182 0
-204 -130 0
-204 -32 0
-204 -180 0
-204 -3 0
204 182 130 32 180 3 0
-205 -19 0
-205 8 0
-205 -3 0
-205 9 0
-205 -107 0
205 19 -8 3 -9 107 0
201 202 203 204 205 0
-206 69 0
-206 100 0
-206 -115 0
-206 131 0
-206 -146 0
206 -69 -100 115 -131 146 0
-207 92 0
-207 143 0
-207 122 0
-207 -185 0
-207 167 0
207 -92 -143 -122 185 -167 0
-208 -94 0
-208 31 0
-208 -58 0
-208 27 0
-208 -160 0
208 94 -31 58 -27 160 0
-209 -112 0
-209 -53 0
-209 -143 0
-209 -65 0
-209 -154 0
209 112 53 143 65 154 0
-210 -97 0
-210 99 0
-210 -21 0
-210 -163 0
-210 90 0
210 97 -99 21 163 -90 0
206 207 208 209 210 0
-211 99 0
-211 140 0
-211 125 0
-211 -116 0
-211 -154 0
211 -99 -140 -125 116 154 0
-212 -139 0
-212 -190 0
-212 103 0
-212 -74 0
-212 -146 0
212 139 190 -103 74 146 0
-213 -76 0
-213 -120 0
-213 -94 0
-213 -123 0
-213 189 0
213 76 120 94 123 -189 0
-214 -114 0
-214 115 0
-214 56 0
-214 137 0
-214 61 0
214 114 -115 -56 -137 -61 0
-215 128 0
-215 57 0
-215 162 0
-215 97 0
-215 114 0
215 -128 -57 -162 -97 -114 0
211 212 213 214 215 0
-216 99 0
-216 -144 0
-216 -156 0
-216 171 0
-216 7 0
216 -99 144 156 -171 -7 0
-217 25 0
-217 151 0
-217 -109 0
-217 166 0
-217 -70 0
217 -25 -151 109 -166 70 0
-218 51 0
-218 10 0
-218 -174 0
-218 57 0
-218 -132 0
218 -51 -10 174 -57 132 0
-219 37 0
-219 17 0
-219 12 0
-219 8 0
-219 -75 0
219 -37 -17 -12 -8 75 0
-220 -95 0
-220 -118 0
-220 24 0
-220 9 0
-220 136 0
220 95 118 -24 -9 -136 0
216 217 218 219 220 0
-221 -149 0
-221 87 0
-221 79 0
-221 -91 0
-221 -18 0
221 149 -87 -79 91 18 0
-222 29 0
-222 81 0
-222 17 0
-222 -140 0
-222 -126 0
222 -29 -81 -17 140 126 0
-223 109 0
-223 114 0
-223 -17 0
-223 4 0
-223 108 0
223 -109 -114 17 -4 -108 0
-224 -70 0
-224 -38 0
-224 -159 0
-224 -71 0
-224 176 0
224 70 38 159 71 -176 0
-225 -138 0
-225 127 0
-225 -17 0
-225 185 0
-225 -2 0
225 138 -127 17 -185 2 0
221 222 223 224 225 0
-226 -152 0
-226 -77 0
-226 131 0
-226 9 0
-226 -186 0
226 152 77 -131 -9 186 0
-227 166 0
-227 76 0
-227 113 0
-227 47 0
-227 -109 0
227 -166 -76 -113 -47 109 0
-228 -181 0
-228 139 0
-228 23 0
-228 -152 0
-228 -124 0
228 181 -139 -23 152 124 0
-229 51 0
-229 -137 0
-229 -123 0
-229 49 0
-229 44 0
229 -51 137 123 -49 -44 0
-230 -142 0
-230 135 0
-230 29 0
-230 163 0
-230 129 0
230 142 -135 -29 -163 -129 0
226 227 228 229 230 0
-231 -152 0
-231 187 0
-231 -30 0
-231 114 0
-231 -129 0
231 152 -187 30 -114 129 0
-232 59 0
-232 44 0
-232 -118 0
-232 17 0
-232 -120 0
232 -59 -44 118 -17 120 0
-233 -148 0
-233 -10 0
-233 151 0
-233 -37 0
-233 -27 0
233 148 10 -151 37 27 0
-234 124 0
-234 -56 0
-234 183 0
-234 -55 0
-234 -128 0
234 -124 56 -183 55 128 0
-235 84 0
-235 -59 0
-235 -179 0
-235 15 0
-235 189 0
235 -84 59 179 -15 -189 0
231 232 233 234 235 0
-236 175 0
-236 179 0
-236 4 0
-236 2 0
-236 -35 0
236 -175 -179 -4 -2 35 0
-237 -8 0
-237 -78 0
-237 100 0
-237 96 0
-237 -49 0
237 8 78 -100 -96 49 0
-238 -105 0
-238 35 0
-238 -149 0
-238 156 0
-238 -3 0
238 105 -35 149 -156 3 0
-239 -103 0
-239 169 0
-239 -11 0
-239 188 0
-239 -31 0
239 103 -169 11 -188 31 0
-240 138 0
-240 -8 0
-240 61 0
-240 56 0
-240 184 0
240 -138 8 -61 -56 -184 0
236 237 238 239 240 0
-241 42 0
-241 -107 0
-241 -81 0
-241 -11 0
-241 -174 0
241 -42 107 81 11 174 0
-242 184 0
-242 85 0
-242 -180 0
-242 71 0
-242 -186 0
242 -184 -85 180 -71 186 0
-243 1 0
-243 -150 0
-243 2 0
-243 117 0
-243 -55 0
243 -1 150 -2 -117 55 0
-244 -47 0
-244 19 0
-244 82 0
-244 -160 0
-244 -91 0
244 47 -19 -82 160 91 0
-245 -103 0
-245 -98 0
-245 176 0
-245 -141 0
-245 -100 0
245 103 98 -176 141 100 0
241 242 243 244 245 0
-246 22 0
-246 -183 0
-246 -106 0
-246 164 0
-246 -50 0
246 -22 183 106 -164 50 0
-247 138 0
-247 -103 0
-247 -61 0
-247 67 0
-247 -167 0
247 -138 103 61 -67 167 0
-248 -75 0
-248 -140 0
-248 1 0
-248 108 0
-248 -74 0
248 75 140 -1 -108 74 0
-249 -22 0
-249 112 0
-249 159 0
-249 -48 0
-249 -142 0
249 22 -112 -159 48 142 0
-250 -86 0
-250 14 0
-250 -68 0
-250 -120 0
-250 -109 0
250 86 -14 68 120 109 0
246 247 248 249 250 0
-251 83 0
-251 112 0
-251 19 0
-251 26 0
-251 162 0
251 -83 -112 -19 -26 -162 0
-252 -42 0
-252 -7 0
-252 -142 0
-252 -65 0
-252 -129 0
252 42 7 142 65 129 0
-253 -152 0
-253 38 0
-253 122 0
-253 -24 0
-253 -171 0
253 152 -38 -122 24 171 0
-254 -133 0
-254 -17 0
-254 120 0
-254 -164 0
-254 -159 0
254 133 17 -120 164 159 0
-255 -72 0
-255 10 0
-255 102 0
-255 -88 0
-255 -4 0
255 72 -10 -102 88 4 0
251 252 253 254 255 0
-256 26 0
-256 -132 0
-256 -56 0
-256 -168 0
-256 31 0
256 -26 132 56 168 -31 0
-257 -96 0
-257 -157 0
-257 162 0
-257 -100 0
-257 183 0
257 96 157 -162 100 -183 0
-258 -42 0
-258 -113 0
-258 132 0
-258 -65 0
-258 115 0
258 42 113 -132 65 -115 0
-259 33 0
-259 18 0
-259 61 0
-259 -24 0
-259 -166 0
259 -33 -18 -61 24 166 0
-260 99 0
-260 -91 0
-260 171 0
-260 25 0
-260 -131 0
260 -99 91 -171 -25 131 0
256 257 258 259 260 0
-261 -171 0
-261 -189 0
-261 166 0
-261 -113 0
-261 -139 0
261 171 189 -166 113 139 0
-262 -167 0
-262 -7 0
-262 -97 0
-262 -19 0
-262 -9 0
262 167 7 97 19 9 0
-263 101 0
-263 -102 0
-263 110 0
-263 91 0
-263 -104 0
263 -101 102 -110 -91 104 0
-264 15 0
-264 -154 0
-264 72 0
-264 -176 0
-264 -146 0
264 -15 154 -72 176 146 0
-265 -114 0
-265 144 0
-265 15 0
-265 117 0
-265 180 0
265 114 -144 -15 -117 -180 0
261 262 263 264 265 0
-266 -153 0
-266 -177 0
-266 -59 0
-266 -121 0
-266 123 0
266 153 177 59 121 -123 0
-267 128 0
-267 31 0
-267 -76 0
-267 164 0
-267 158 0
267 -128 -31 76 -164 -158 0
-268 143 0
-268 96 0
-268 1 0
-268 110 0
-268 -101 0
268 -143 -96 -1 -110 101 0
-269 -182 0
-269 -20 0
-269 -63 0
-269 -172 0
-269 -74 0
269 182 20 63 172 74 0
-270 -154 0
-270 176 0
-270 12 0
-270 131 0
-270 123 0
270 154 -176 -12 -131 -123 0
266 267 268 269 270 0
-271 88 0
-271 -173 0
-271 130 0
-271 182 0
-271 54 0
271 -88 173 -130 -182 -54 0
-272 169 0
-272 49 0
-272 140 0
-272 -118 0
-272 -71 0
272 -169 -49 -140 118 71 0
-273 1 0
-273 -32 0
-273 85 0
-273 190 0
-273 -181 0
273 -1 32 -85 -190 181 0
-274 56 0
-274 -113 0
-274 49 0
-274 -108 0
-274 177 0
274 -56 113 -49 108 -177 0
-275 4 0
-275 19 0
-275 -87 0
-275 -65 0
-275 -34 0
275 -4 -19 87 65 34 0
271 272 273 274 275 0
-276 125 0
-276 121 0
-276 17 0
-276 40 0
-276 -76 0
276 -125 -121 -17 -40 76 0
-277 21 0
-277 103 0
-277 158 0
-277 -130 0
-277 -152 0
277 -21 -103 -158 130 152 0
-278 -35 0
-278 -125 0
-278 -127 0
-278 -63 0
-278 38 0
278 35 125 127 63 -38 0
-279 46 0
-279 -129 0
-279 -40 0
-279 34 0
-279 -91 0
279 -46 129 40 -34 91 0
-280 85 0
-280 41 0
-280 2 0
-280 -144 0
-280 113 0
280 -85 -41 -2 144 -113 0
276 277 278 279 280 0
-281 57 0
-281 49 0
-281 25 0
-281 -157 0
-281 13 0
281 -57 -49 -25 157 -13 0
-282 -27 0
-282 49 0
-282 -146 0
-282 -124 0
-282 119 0
282 27 -49 146 124 -119 0
-283 -187 0
-283 -43 0
-283 -129 0
-283 59 0
-283 -96 0
283 187 43 129 -59 96 0
-284 -79 0
-284 162 0
-284 -114 0
-284 -29 0
-284 -189 0
284 79 -162 114 29 189 0
-285 139 0
-285 -55 0
-285 -97 0
-285 82 0
-285 76 0
285 -139 55 97 -82 -76 0
281 282 283 284 285 0
-286 146 0
-286 106 0
-286 -3 0
-286 -52 0
-286 8 0
286 -146 -106 3 52 -8 0
-287 -69 0
-287 105 0
-287 50 0
-287 -157 0
-287 135 0
287 69 -105 -50 157 -135 0
-288 -39 0
-288 -92 0
-288 135 0
-288 25 0
-288 -111 0
288 39 92 -135 -25 111 0
-289 12 0
-289 168 0
-289 49 0
-289 150 0
-289 -2 0
289 -12 -168 -49 -150 2 0
-290 -131 0
-290 155 0
-290 -181 0
-290 -64 0
-290 -118 0
290 131 -155 181 64 118 0
286 287 288 289 290 0
-291 -49 0
-291 -157 0
-291 74 0
-291 -100 0
-291 166 0
291 49 157 -74 100 -166 0
-292 173 0
-292 74 0
-292 -178 0
-292 -13 0
-292 -78 0
292 -173 -74 178 13 78 0
-293 98 0
-293 108 0
-293 -45 0
-293 15 0
-293 -11 0
293 -98 -108 45 -15 11 0
-294 26 0
-294 38 0
-294 34 0
-294 180 0
-294 74 0
294 -26 -38 -34 -180 -74 0
-295 101 0
-295 -140 0
-295 57 0
-295 -129 0
-295 -66 0
295 -101 140 -57 129 66 0
291 292 293 294 295 0
-296 -39 0
-296 26 0
-296 83 0
-296 121 0
-296 54 0
296 39 -26 -83 -121 -54 0
-297 -169 0
-297 15 0
-297 54 0
-297 -87 0
-297 9 0
297 169 -15 -54 87 -9 0
-298 -154 0
-298 -60 0
-298 178 0
-298 -82 0
-298 -182 0
298 154 60 -178 82 182 0
-299 88 0
-299 76 0
-299 -133 0
-299 -21 0
-299 144 0
299 -88 -76 133 21 -144 0
-300 -183 0
-300 -103 0
-300 -44 0
-300 -64 0
-300 55 0
300 183 103 44 64 -55 0
296 297 298 299 300 0
-301 -5 0
-301 143 0
-301 -130 0
-301 -47 0
-301 14 0
301 5 -143 130 47 -14 0
-302 50 0
-302 165 0
-302 -184 0
-302 97 0
-302 123 0
302 -50 -165 184 -97 -123 0
-303 119 0
-303 -151 0
-303 -55 0
-303 -33 0
-303 -179 0
303 -119 151 55 33 179 0
-304 -150 0
-304 188 0
-304 99 0
-304 -141 0
-304 131 0
304 150 -188 -99 141 -131 0
-305 69 0
-305 164 0
-305 -143 0
-305 -59 0
-305 -18 0
305 -69 -164 143 59 18 0
301 302 303 304 305 0
-306 -86 0
-306 -52 0
-306 82 0
-306 -120 0
-306 -67 0
306 86 52 -82 120 67 0
-307 -188 0
-307 -133 0
-307 -81 0
-307 75 0
-307 91 0
307 188 133 81 -75 -91 0
-308 -36 0
-308 -48 0
-308 93 0
-308 189 0
-308 22 0
308 36 48 -93 -189 -22 0
-309 7 0
-309 153 0
-309 61 0
-309 131 0
-309 -171 0
309 -7 -153 -61 -131 171 0
-310 -28 0
-310 -125 0
-310 84 0
-310 -23 0
-310 -4 0
310 28 125 -84 23 4 0
306 307 308 309 310 0
-311 -184 0
-311 179 0
-311 -36 0
-311 -94 0
-311 159 0
311 184 -179 36 94 -159 0
-312 -39 0
-312 90 0
-312 -50 0
-312 -109 0
-312 125 0
312 39 -90 50 109 -125 0
-313 -128 0
-313 -83 0
-313 14 0
-313 155 0
-313 -11 0
313 128 83 -14 -155 11 0
-314 -183 0
-314 -31 0
-314 -88 0
-314 -40 0
-314 -166 0
314 183 31 88 40 166 0
-315 -187 0
-315 -58 0
-315 -102 0
-315 70 0
-315 -166 0
315 187 58 102 -70 166 0
311 312 313 314 315 0
-316 11 0
-316 -6 0
-316 67 0
-316 166 0
-316 15 0
316 -11 6 -67 -166 -15 0
-317 54 0
-317 86 0
-317 28 0
-317 -64 0
-317 -51 0
317 -54 -86 -28 64 51 0
-318 151 0
-318 -138 0
-318 134 0
-318 77 0
-318 164 0
318 -151 138 -134 -77 -164 0
-319 -47 0
-319 -149 0
-319 156 0
-319 120 0
-319 -147 0
319 47 149 -156 -120 147 0
-320 -66 0
-320 -15 0
-320 -12 0
-320 119 0
-320 -49 0
320 66 15 12 -119 49 0
316 317 318 319 320 0
-321 129 0
-321 -168 0
-321 46 0
-321 4 0
-321 120 0
321 -129 168 -46 -4 -120 0
-322 -89 0
-322 -109 0
-322 106 0
-322 53 0
-322 -153 0
322 89 109 -106 -53 153 0
-323 43 0
-323 -141 0
-323 -70 0
-323 124 0
-323 79 0
323 -43 141 70 -124 -79 0
-324 125 0
-324 159 0
-324 -42 0
-324 104 0
-324 -190 0
324 -125 -159 42 -104 190 0
-325 -173 0
-325 -80 0
-325 187 0
-325 81 0
-325 -67 0
325 173 80 -187 -81 67 0
321 322 323 324 325 0
-326 6 0
-326 -74 0
-326 32 0
-326 1 0
-326 22 0
326 -6 74 -32 -1 -22 0
-327 -136 0
-327 159 0
-327 -140 0
-327 165 0
-327 174 0
327 136 -159 140 -165 -174 0
-328 -74 0
-328 -178 0
-328 -24 0
-328 105 0
-328 -139 0
328 74 178 24 -105 139 0
-329 175 0
-329 -74 0
-329 178 0
-329 -112 0
-329 -183 0
329 -175 74 -178 112 183 0
-330 -10 0
-330 -186 0
-330 -169 0
-330 -54 0
-330 -119 0
330 10 186 169 54 119 0
326 327 328 329 330 0
-331 157 0
-331 -47 0
-331 158 0
-331 -84 0
-331 -181 0
331 -157 47 -158 84 181 0
-332 38 0
-332 89 0
-332 100 0
-332 -101 0
-332 -109 0
332 -38 -89 -100 101 109 0
-333 -128 0
-333 -178 0
-333 104 0
-333 -17 0
-333 -26 0
333 128 178 -104 17 26 0
-334 -76 0
-334 101 0
-334 -142 0
-334 146 0
-334 15 0
334 76 -101 142 -146 -15 0
-335 -58 0
-335 98 0
-335 -23 0
-335 96 0
-335 -69 0
335 58 -98 23 -96 69 0
331 332 333 334 335 0
-336 59 0
-336 -78 0
-336 -20 0
-336 5 0
-336 187 0
336 -59 78 20 -5 -187 0
-337 65 0
-337 2 0
-337 57 0
-337 -122 0
-337 -11 0
337 -65 -2 -57 122 11 0
-338 30 0
-338 -39 0
-338 93 0
-338 77 0
-338 17 0
338 -30 39 -93 -77 -17 0
-339 -38 0
-339 -1 0
-339 -150 0
-339 159 0
-339 -53 0
339 38 1 150 -159 53 0
-340 -114 0
-340 -52 0
-340 -40 0
-340 -181 0
-340 -98 0
340 114 52 40 181 98 0
336 337 338 339 340 0
-341 -116 0
-341 47 0
-341 103 0
-341 -51 0
-341 130 0
341 116 -47 -103 51 -130 0
-342 145 0
-342 118 0
-342 -30 0
-342 138 0
-342 170 0
342 -145 -118 30 -138 -170 0
-343 -180 0
-343 28 0
-343 -85 0
-343 29 0
-343 -166 0
343 180 -28 85 -29 166 0
-344 -166 0
-344 45 0
-344 -74 0
-344 -29 0
-344 78 0
344 166 -45 74 29 -78 0
-345 9 0
-345 -99 0
-345 69 0
-345 -55 0
-345 -1 0
345 -9 99 -69 55 1 0
341 342 343 344 345 0
-346 -96 0
-346 -115 0
-346 -29 0
-346 81 0
-346 -88 0
346 96 115 29 -81 88 0
-347 -112 0
-347 -148 0
-347 127 0
-347 23 0
-347 149 0
347 112 148 -127 -23 -149 0
-348 162 0
-348 18 0
-348 138 0
-348 125 0
-348 -35 0
348 -162 -18 -138 -125 35 0
-349 78 0
-349 -161 0
-349 53 0
-349 181 0
-349 147 0
349 -78 161 -53 -181 -147 0
-350 52 0
-350 -75 0
-350 -112 0
-350 -78 0
-350 -176 0
350 -52 75 112 78 176 0
346 347 348 349 350 0
-351 67 0
-351 -41 0
-351 -139 0
-351 54 0
-351 -114 0
351 -67 41 139 -54 114 0
-352 178 0
-352 18 0
-352 -24 0
-352 -139 0
-352 -5 0
352 -178 -18 24 139 5 0
-353 147 0
-353 -12 0
-353 -118 0
-353 81 0
-353 -184 0
353 -147 12 118 -81 184 0
-354 152 0
-354 170 0
-354 -41 0
-354 81 0
-354 -76 0
354 -152 -170 41 -81 76 0
-355 64 0
-355 -63 0
-355 188 0
-355 -178 0
-355 -148 0
355 -64 63 -188 178 148 0
351 352 353 354 355 0
-356 37 0
-356 -31 0
-356 151 0
-356 -55 0
-356 -173 0
356 -37 31 -151 55 173 0
-357 -170 0
-357 -21 0
-357 94 0
-357 -1 0
-357 -57 0
357 170 21 -94 1 57 0
-358 43 0
-358 114 0
-358 58 0
-358 -17 0
-358 150 0
358 -43 -114 -58 17 -150 0
-359 146 0
-359 156 0
-359 -13 0
-359 -9 0
-359 84 0
359 -146 -156 13 9 -84 0
-360 -62 0
-360 -110 0
-360 170 0
-360 73 0
-360 -37 0
360 62 110 -170 -73 37 0
356 357 358 359 360 0
-361 46 0
-361 -39 0
-361 -64 0
-361 -149 0
-361 106 0
361 -46 39 64 149 -106 0
-362 -67 0
-362 6 0
-362 55 0
-362 155 0
-362 83 0
362 67 -6 -55 -155 -83 0
-363 -168 0
-363 100 0
-363 -161 0
-363 -165 0
-363 -150 0
363 168 -100 161 165 150 0
-364 -63 0
-364 10 0
-364 -143 0
-364 110 0
-364 -19 0
364 63 -10 143 -110 19 0
-365 -54 0
-365 65 0
-365 -141 0
-365 22 0
-365 20 0
365 54 -65 141 -22 -20 0
361 362 363 364 365 0
-366 -186 0
-366 -48 0
-366 69 0
-366 55 0
-366 -148 0
366 186 48 -69 -55 148 0
-367 -102 0
-367 77 0
-367 -173 0
-367 107 0
-367 169 0
367 102 -77 173 -107 -169 0
-368 -160 0
-368 91 0
-368 53 0
-368 121 0
-368 51 0
368 160 -91 -53 -121 -51 0
-369 -190 0
-369 162 0
-369 -65 0
-369 158 0
-369 90 0
369 190 -162 65 -158 -90 0
-370 -46 0
-370 79 0
-370 99 0
-370 -87 0
-370 -158 0
370 46 -79 -99 87 158 0
366 367 368 369 370 0
-371 -138 0
-371 -139 0
-371 71 0
-371 -130 0
-371 -89 0
371 138 139 -71 130 89 0
-372 105 0
-372 -58 0
-372 100 0
-372 -38 0
-372 115 0
372 -105 58 -100 38 -115 0
-373 -147 0
-373 109 0
-373 -130 0
-373 176 0
-373 -149 0
373 147 -109 130 -176 149 0
-374 -28 0
-374 -130 0
-374 -163 0
-374 124 0
-374 -43 0
374 28 130 163 -124 43 0
-375 -106 0
-375 154 0
-375 136 0
-375 144 0
-375 -41 0
375 106 -154 -136 -144 41 0
371 372 373 374 375 0
-376 -92 0
-376 125 0
-376 -68 0
-376 16 0
-376 -154 0
376 92 -125 68 -16 154 0
-377 61 0
-377 133 0
-377 134 0
-377 16 0
-377 -5 0
377 -61 -133 -134 -16 5 0
-378 163 0
-378 -104 0
-378 -124 0
-378 -162 0
-378 -3 0
378 -163 104 124 162 3 0
-379 -42 0
-379 -129 0
-379 121 0
-379 -87 0
-379 46 0
379 42 129 -121 87 -46 0
-380 -175 0
-380 63 0
-380 128 0
-380 -50 0
-380 -56 0
380 175 -63 -128 50 56 0
376 377 378 379 380 0
-381 -83 0
-381 -179 0
-381 116 0
-381 -189 0
-381 -125 0
381 83 179 -116 189 125 0
-382 -145 0
-382 42 0
-382 -162 0
-382 92 0
-382 31 0
382 145 -42 162 -92 -31 0
-383 -127 0
-383 -167 0
-383 -38 0
-383 -101 0
-383 76 0
383 127 167 38 101 -76 0
-384 34 0
-384 79 0
-384 21 0
-384 93 0
-384 -19 0
384 -34 -79 -21 -93 19 0
-385 -111 0
-385 130 0
-385 -136 0
-385 -42 0
-385 -163 0
385 111 -130 136 42 163 0
381 382 383 384 385 0
-386 81 0
-386 143 0
-386 102 0
-386 -78 0
-386 -74 0
386 -81 -143 -102 78 74 0
-387 -145 0
-387 -88 0
-387 113 0
-387 -86 0
-387 -87 0
387 145 88 -113 86 87 0
-388 -94 0
-388 -128 0
-388 43 0
-388 175 0
-388 -53 0
388 94 128 -43 -175 53 0
-389 105 0
-389 -115 0
-389 22 0
-389 143 0
-389 -145 0
389 -105 115 -22 -143 145 0
-390 82 0
-390 105 0
-390 -126 0
-390 89 0
-390 135 0
390 -82 -105 126 -89 -135 0
386 387 388 389 390 0
-391 19 0
-391 17 0
-391 172 0
-391 -68 0
-391 -36 0
391 -19 -17 -172 68 36 0
-392 38 0
-392 -45 0
-392 -16 0
-392 19 0
-392 -160 0
392 -38 45 16 -19 160 0
-393 3 0
-393 -25 0
-393 -174 0
-393 -80 0
-393 23 0
393 -3 25 174 80 -23 0
-394 63 0
-394 12 0
-394 156 0
-394 -32 0
-394 46 0
394 -63 -12 -156 32 -46 0
-395 -172 0
-395 40 0
-395 -3 0
-395 -32 0
-395 -180 0
395 172 -40 3 32 180 0
391 392 393 394 395 0
-396 -50 0
-396 -143 0
-396 31 0
-396 -90 0
-396 -72 0
396 50 143 -31 90 72 0
-397 51 0
-397 124 0
-397 159 0
-397 -30 0
-397 -10 0
397 -51 -124 -159 30 10 0
-398 -55 0
-398 -133 0
-398 -33 0
-398 142 0
-398 -99 0
398 55 133 33 -142 99 0
-399 141 0
-399 155 0
-399 35 0
-399 -13 0
-399 132 0
399 -141 -155 -35 13 -132 0
-400 -51 0
-400 36 0
-400 -130 0
-400 93 0
-400 55 0
400 51 -36 130 -93 -55 0
396 397 398 399 400 0
-401 -45 0
-401 -108 0
-401 95 0
-401 112 0
-401 -123 0
401 45 108 -95 -112 123 0
-402 -173 0
-402 37 0
-402 151 0
-402 143 0
-402 108 0
402 173 -37 -151 -143 -108 0
-403 -144 0
-403 -35 0
-403 -121 0
-403 -184 0
-403 -48 0
403 144 35 121 184 48 0
-404 -181 0
-404 56 0
-404 95 0
-404 -20 0
-404 -17 0
404 181 -56 -95 20 17 0
-405 -133 0
-405 109 0
-405 -106 0
-405 -78 0
-405 94 0
405 133 -109 106 78 -94 0
401 402 403 404 405 0
-406 167 0
-406 -108 0
-406 -41 0
-406 -86 0
-406 -3 0
406 -167 108 41 86 3 0
-407 -185 0
-407 -186 0
-407 -159 0
-407 36 0
-407 -22 0
407 185 186 159 -36 22 0
-408 -170 0
-408 86 0
-408 18 0
-408 -88 0
-408 -139 0
408 170 -86 -18 88 139 0
-409 -161 0
-409 -101 0
-409 48 0
-409 177 0
-409 140 0
409 161 101 -48 -177 -140 0
-410 26 0
-410 4 0
-410 54 0
-410 151 0
-410 -52 0
410 -26 -4 -54 -151 52 0
406 407 408 409 410 0
-411 -35 0
-411 172 0
-411 144 0
-411 115 0
-411 -12 0
411 35 -172 -144 -115 12 0
-412 -46 0
-412 -3 0
-412 17 0
-412 45 0
-412 39 0
412 46 3 -17 -45 -39 0
-413 59 0
-413 -77 0
-413 153 0
-413 -95 0
-413 -3 0
413 -59 77 -153 95 3 0
-414 -52 0
-414 21 0
-414 80 0
-414 71 0
-414 -44 0
414 52 -21 -80 -71 44 0
-415 -104 0
-415 81 0
-415 -61 0
-415 -172 0
-415 66 0
415 104 -81 61 172 -66 0
411 412 413 414 415 0
-416 63 0
-416 -26 0
-416 -15 0
-416 81 0
-416 2 0
416 -63 26 15 -81 -2 0
-417 -173 0
-417 113 0
-417 39 0
-417 135 0
-417 112 0
417 173 -113 -39 -135 -112 0
-418 -42 0
-418 -14 0
-418 149 0
-418 -180 0
-418 103 0
418 42 14 -149 180 -103 0
-419 -25 0
-419 164 0
-419 123 0
-419 -54 0
-419 43 0
419 25 -164 -123 54 -43 0
-420 -11 0
-420 -29 0
-420 -94 0
-420 -124 0
-420 183 0
420 11 29 94 124 -183 0
416 417 418 419 420 0
-421 66 0
-421 86 0
-421 13 0
-421 159 0
-421 101 0
421 -66 -86 -13 -159 -101 0
-422 -36 0
-422 158 0
-422 -123 0
-422 -94 0
-422 20 0
422 36 -158 123 94 -20 0
-423 -59 0
-423 -140 0
-423 80 0
-423 157 0
-423 -90 0
423 59 140 -80 -157 90 0
-424 -187 0
-424 117 0
-424 7 0
-424 190 0
-424 70 0
424 187 -117 -7 -190 -70 0
-425 -5 0
-425 -31 0
-425 -127 0
-425 182 0
-425 -176 0
425 5 31 127 -182 176 0
421 422 423 424 425 0
-426 -21 0
-426 -127 0
-426 149 0
-426 145 0
-426 -190 0
426 21 127 -149 -145 190 0
-427 -166 0
-427 -75 0
-427 -19 0
-427 20 0
-427 99 0
427 166 75 19 -20 -99 0
-428 98 0
-428 -66 0
-428 -115 0
-428 -67 0
-428 36 0
428 -98 66 115 67 -36 0
-429 -45 0
-429 42 0
-429 129 0
-429 136 0
-429 138 0
429 45 -42 -129 -136 -138 0
-430 -25 0
-430 28 0
-430 -31 0
-430 -11 0
-430 -4 0
430 25 -28 31 11 4 0
426 427 428 429 430 0
